TYPE : Vertex Cover
DIMENSION: 27
EDGE_DATA_SECTION:
0 1
0 4
0 5
0 8
0 16
0 19
0 26
1 7
1 9
1 16
1 20
2 9
2 15
2 19
2 24
2 26
3 6
3 7
3 15
3 24
4 9
4 13
4 14
5 8
5 13
5 15
5 16
5 18
5 20
5 21
5 24
5 26
6 7
6 12
6 13
6 18
6 23
7 11
8 10
8 12
8 15
8 17
9 11
9 12
9 25
9 26
10 14
11 12
11 15
11 23
11 26
12 13
12 14
12 16
12 17
12 21
12 24
12 25
13 16
13 17
13 19
13 24
13 25
13 26
14 15
14 17
14 19
14 20
14 22
15 21
15 26
16 21
16 25
17 20
17 22
17 25
19 25
19 26
20 21
20 23
20 24
22 24
22 25
24 26
-1
VERTEX_DEGREE:
7.0 5.0 5.0 4.0 4.0 10.0 6.0 4.0 6.0 7.0 2.0 6.0 11.0 10.0 8.0 8.0 7.0 7.0 2.0 6.0 7.0 5.0 4.0 3.0 8.0 7.0 9.0
VERTEX_COVER:
0 1 2 3 5 6 8 9 11 12 13 14 20 21 22 25 26
EOF
